p cnf 1780
-25 -557
-26 -560
-27 -563
-28 -566
-29 -569
-30 -572
-31 -575
-32 -578
-33 -581
-34 -584
-35 -587
-36 -590
-37 -593
-38 -596
-39 -599
-40 -602
-41 -605
-42 -608
-43 -611
-44 -614
-45 -617
-46 -620
-47 -623
-48 -626
-49 627
-50 628
-51 629
-52 630
-53 631
-54 632
-55 633
-56 634
-57 635
-58 636
-59 637
-60 638
-61 639
-62 640
-63 641
-64 -26
-64 -27
26 27 64
-65 -28
-65 -29
28 29 65
-66 -30
-66 -31
30 31 66
-67 -32
-67 -33
32 33 67
-68 -34
-68 -35
34 35 68
-69 -36
-69 -37
36 37 69
-70 -38
-70 -39
38 39 70
-71 -40
-71 -41
40 41 71
-72 -42
-72 -43
42 43 72
-73 -44
-73 -45
44 45 73
-74 -46
-74 -47
46 47 74
-75 -48
-75 -49
48 49 75
-76 -50
-76 -51
50 51 76
-77 -52
-77 -53
52 53 77
-78 -54
-78 -55
54 55 78
-79 -56
-79 -57
56 57 79
-80 -58
-80 -59
58 59 80
-81 -60
-81 -61
60 61 81
-82 -62
-82 -63
62 63 82
-83 64
-83 65
-64 -65 83
-84 66
-84 67
-66 -67 84
-85 68
-85 69
-68 -69 85
-86 70
-86 71
-70 -71 86
-87 72
-87 73
-72 -73 87
-88 74
-88 75
-74 -75 88
-89 76
-89 77
-76 -77 89
-90 78
-90 79
-78 -79 90
-91 80
-91 81
-80 -81 91
-92 83
-92 84
-83 -84 92
-93 85
-93 86
-85 -86 93
-94 87
-94 88
-87 -88 94
-95 89
-95 90
-89 -90 95
-96 82
-96 91
-82 -91 96
-97 92
-97 93
-92 -93 97
-98 94
-98 95
-94 -95 98
-99 97
-99 98
-97 -98 99
-100 96
-100 99
-96 -99 100
-101 -25
-101 26
25 -26 101
-102 25
-102 -26
-25 26 102
-103 -101
-103 -102
101 102 103
-104 25
-104 26
-25 -26 104
-105 -25
-105 -103
25 103 105
-106 25
-106 103
-25 -103 106
-107 -105
-107 -106
105 106 107
-108 25
-108 -103
-25 103 108
-109 -104
-109 -108
104 108 109
-110 -26
-110 27
26 -27 110
-111 26
-111 -27
-26 27 111
-112 -110
-112 -111
110 111 112
-113 26
-113 27
-26 -27 113
-114 109
-114 -112
-109 112 114
-115 -109
-115 112
109 -112 115
-116 -114
-116 -115
114 115 116
-117 -109
-117 -112
109 112 117
-118 -113
-118 -117
113 117 118
-119 -27
-119 28
27 -28 119
-120 27
-120 -28
-27 28 120
-121 -119
-121 -120
119 120 121
-122 27
-122 28
-27 -28 122
-123 118
-123 -121
-118 121 123
-124 -118
-124 121
118 -121 124
-125 -123
-125 -124
123 124 125
-126 -118
-126 -121
118 121 126
-127 -122
-127 -126
122 126 127
-128 -28
-128 29
28 -29 128
-129 28
-129 -29
-28 29 129
-130 -128
-130 -129
128 129 130
-131 28
-131 29
-28 -29 131
-132 127
-132 -130
-127 130 132
-133 -127
-133 130
127 -130 133
-134 -132
-134 -133
132 133 134
-135 -127
-135 -130
127 130 135
-136 -131
-136 -135
131 135 136
-137 -29
-137 30
29 -30 137
-138 29
-138 -30
-29 30 138
-139 -137
-139 -138
137 138 139
-140 29
-140 30
-29 -30 140
-141 136
-141 -139
-136 139 141
-142 -136
-142 139
136 -139 142
-143 -141
-143 -142
141 142 143
-144 -136
-144 -139
136 139 144
-145 -140
-145 -144
140 144 145
-146 -30
-146 31
30 -31 146
-147 30
-147 -31
-30 31 147
-148 -146
-148 -147
146 147 148
-149 30
-149 31
-30 -31 149
-150 145
-150 -148
-145 148 150
-151 -145
-151 148
145 -148 151
-152 -150
-152 -151
150 151 152
-153 -145
-153 -148
145 148 153
-154 -149
-154 -153
149 153 154
-155 -31
-155 32
31 -32 155
-156 31
-156 -32
-31 32 156
-157 -155
-157 -156
155 156 157
-158 31
-158 32
-31 -32 158
-159 154
-159 -157
-154 157 159
-160 -154
-160 157
154 -157 160
-161 -159
-161 -160
159 160 161
-162 -154
-162 -157
154 157 162
-163 -158
-163 -162
158 162 163
-164 -32
-164 33
32 -33 164
-165 32
-165 -33
-32 33 165
-166 -164
-166 -165
164 165 166
-167 32
-167 33
-32 -33 167
-168 163
-168 -166
-163 166 168
-169 -163
-169 166
163 -166 169
-170 -168
-170 -169
168 169 170
-171 -163
-171 -166
163 166 171
-172 -167
-172 -171
167 171 172
-173 -33
-173 34
33 -34 173
-174 33
-174 -34
-33 34 174
-175 -173
-175 -174
173 174 175
-176 33
-176 34
-33 -34 176
-177 172
-177 -175
-172 175 177
-178 -172
-178 175
172 -175 178
-179 -177
-179 -178
177 178 179
-180 -172
-180 -175
172 175 180
-181 -176
-181 -180
176 180 181
-182 -34
-182 35
34 -35 182
-183 34
-183 -35
-34 35 183
-184 -182
-184 -183
182 183 184
-185 34
-185 35
-34 -35 185
-186 181
-186 -184
-181 184 186
-187 -181
-187 184
181 -184 187
-188 -186
-188 -187
186 187 188
-189 -181
-189 -184
181 184 189
-190 -185
-190 -189
185 189 190
-191 -35
-191 36
35 -36 191
-192 35
-192 -36
-35 36 192
-193 -191
-193 -192
191 192 193
-194 35
-194 36
-35 -36 194
-195 190
-195 -193
-190 193 195
-196 -190
-196 193
190 -193 196
-197 -195
-197 -196
195 196 197
-198 -190
-198 -193
190 193 198
-199 -194
-199 -198
194 198 199
-200 -36
-200 37
36 -37 200
-201 36
-201 -37
-36 37 201
-202 -200
-202 -201
200 201 202
-203 36
-203 37
-36 -37 203
-204 199
-204 -202
-199 202 204
-205 -199
-205 202
199 -202 205
-206 -204
-206 -205
204 205 206
-207 -199
-207 -202
199 202 207
-208 -203
-208 -207
203 207 208
-209 -37
-209 38
37 -38 209
-210 37
-210 -38
-37 38 210
-211 -209
-211 -210
209 210 211
-212 37
-212 38
-37 -38 212
-213 208
-213 -211
-208 211 213
-214 -208
-214 211
208 -211 214
-215 -213
-215 -214
213 214 215
-216 -208
-216 -211
208 211 216
-217 -212
-217 -216
212 216 217
-218 -38
-218 39
38 -39 218
-219 38
-219 -39
-38 39 219
-220 -218
-220 -219
218 219 220
-221 38
-221 39
-38 -39 221
-222 217
-222 -220
-217 220 222
-223 -217
-223 220
217 -220 223
-224 -222
-224 -223
222 223 224
-225 -217
-225 -220
217 220 225
-226 -221
-226 -225
221 225 226
-227 -39
-227 40
39 -40 227
-228 39
-228 -40
-39 40 228
-229 -227
-229 -228
227 228 229
-230 39
-230 40
-39 -40 230
-231 226
-231 -229
-226 229 231
-232 -226
-232 229
226 -229 232
-233 -231
-233 -232
231 232 233
-234 -226
-234 -229
226 229 234
-235 -230
-235 -234
230 234 235
-236 -40
-236 41
40 -41 236
-237 40
-237 -41
-40 41 237
-238 -236
-238 -237
236 237 238
-239 40
-239 41
-40 -41 239
-240 235
-240 -238
-235 238 240
-241 -235
-241 238
235 -238 241
-242 -240
-242 -241
240 241 242
-243 -235
-243 -238
235 238 243
-244 -239
-244 -243
239 243 244
-245 -41
-245 42
41 -42 245
-246 41
-246 -42
-41 42 246
-247 -245
-247 -246
245 246 247
-248 41
-248 42
-41 -42 248
-249 244
-249 -247
-244 247 249
-250 -244
-250 247
244 -247 250
-251 -249
-251 -250
249 250 251
-252 -244
-252 -247
244 247 252
-253 -248
-253 -252
248 252 253
-254 -42
-254 43
42 -43 254
-255 42
-255 -43
-42 43 255
-256 -254
-256 -255
254 255 256
-257 42
-257 43
-42 -43 257
-258 253
-258 -256
-253 256 258
-259 -253
-259 256
253 -256 259
-260 -258
-260 -259
258 259 260
-261 -253
-261 -256
253 256 261
-262 -257
-262 -261
257 261 262
-263 -43
-263 44
43 -44 263
-264 43
-264 -44
-43 44 264
-265 -263
-265 -264
263 264 265
-266 43
-266 44
-43 -44 266
-267 262
-267 -265
-262 265 267
-268 -262
-268 265
262 -265 268
-269 -267
-269 -268
267 268 269
-270 -262
-270 -265
262 265 270
-271 -266
-271 -270
266 270 271
-272 -44
-272 45
44 -45 272
-273 44
-273 -45
-44 45 273
-274 -272
-274 -273
272 273 274
-275 44
-275 45
-44 -45 275
-276 271
-276 -274
-271 274 276
-277 -271
-277 274
271 -274 277
-278 -276
-278 -277
276 277 278
-279 -271
-279 -274
271 274 279
-280 -275
-280 -279
275 279 280
-281 -45
-281 46
45 -46 281
-282 45
-282 -46
-45 46 282
-283 -281
-283 -282
281 282 283
-284 45
-284 46
-45 -46 284
-285 280
-285 -283
-280 283 285
-286 -280
-286 283
280 -283 286
-287 -285
-287 -286
285 286 287
-288 -280
-288 -283
280 283 288
-289 -284
-289 -288
284 288 289
-290 -46
-290 47
46 -47 290
-291 46
-291 -47
-46 47 291
-292 -290
-292 -291
290 291 292
-293 46
-293 47
-46 -47 293
-294 289
-294 -292
-289 292 294
-295 -289
-295 292
289 -292 295
-296 -294
-296 -295
294 295 296
-297 -289
-297 -292
289 292 297
-298 -293
-298 -297
293 297 298
-299 -47
-299 48
47 -48 299
-300 47
-300 -48
-47 48 300
-301 -299
-301 -300
299 300 301
-302 47
-302 48
-47 -48 302
-303 298
-303 -301
-298 301 303
-304 -298
-304 301
298 -301 304
-305 -303
-305 -304
303 304 305
-306 -298
-306 -301
298 301 306
-307 -302
-307 -306
302 306 307
-308 -48
-308 49
48 -49 308
-309 48
-309 -49
-48 49 309
-310 -308
-310 -309
308 309 310
-311 48
-311 49
-48 -49 311
-312 307
-312 -310
-307 310 312
-313 -307
-313 310
307 -310 313
-314 -312
-314 -313
312 313 314
-315 -307
-315 -310
307 310 315
-316 -311
-316 -315
311 315 316
-317 -49
-317 50
49 -50 317
-318 49
-318 -50
-49 50 318
-319 -317
-319 -318
317 318 319
-320 49
-320 50
-49 -50 320
-321 316
-321 -319
-316 319 321
-322 -316
-322 319
316 -319 322
-323 -321
-323 -322
321 322 323
-324 -316
-324 -319
316 319 324
-325 -320
-325 -324
320 324 325
-326 -50
-326 51
50 -51 326
-327 50
-327 -51
-50 51 327
-328 -326
-328 -327
326 327 328
-329 50
-329 51
-50 -51 329
-330 325
-330 -328
-325 328 330
-331 -325
-331 328
325 -328 331
-332 -330
-332 -331
330 331 332
-333 -325
-333 -328
325 328 333
-334 -329
-334 -333
329 333 334
-335 -51
-335 52
51 -52 335
-336 51
-336 -52
-51 52 336
-337 -335
-337 -336
335 336 337
-338 51
-338 52
-51 -52 338
-339 334
-339 -337
-334 337 339
-340 -334
-340 337
334 -337 340
-341 -339
-341 -340
339 340 341
-342 -334
-342 -337
334 337 342
-343 -338
-343 -342
338 342 343
-344 -52
-344 53
52 -53 344
-345 52
-345 -53
-52 53 345
-346 -344
-346 -345
344 345 346
-347 52
-347 53
-52 -53 347
-348 343
-348 -346
-343 346 348
-349 -343
-349 346
343 -346 349
-350 -348
-350 -349
348 349 350
-351 -343
-351 -346
343 346 351
-352 -347
-352 -351
347 351 352
-353 -53
-353 54
53 -54 353
-354 53
-354 -54
-53 54 354
-355 -353
-355 -354
353 354 355
-356 53
-356 54
-53 -54 356
-357 352
-357 -355
-352 355 357
-358 -352
-358 355
352 -355 358
-359 -357
-359 -358
357 358 359
-360 -352
-360 -355
352 355 360
-361 -356
-361 -360
356 360 361
-362 -54
-362 55
54 -55 362
-363 54
-363 -55
-54 55 363
-364 -362
-364 -363
362 363 364
-365 54
-365 55
-54 -55 365
-366 361
-366 -364
-361 364 366
-367 -361
-367 364
361 -364 367
-368 -366
-368 -367
366 367 368
-369 -361
-369 -364
361 364 369
-370 -365
-370 -369
365 369 370
-371 -55
-371 56
55 -56 371
-372 55
-372 -56
-55 56 372
-373 -371
-373 -372
371 372 373
-374 55
-374 56
-55 -56 374
-375 370
-375 -373
-370 373 375
-376 -370
-376 373
370 -373 376
-377 -375
-377 -376
375 376 377
-378 -370
-378 -373
370 373 378
-379 -374
-379 -378
374 378 379
-380 -56
-380 57
56 -57 380
-381 56
-381 -57
-56 57 381
-382 -380
-382 -381
380 381 382
-383 56
-383 57
-56 -57 383
-384 379
-384 -382
-379 382 384
-385 -379
-385 382
379 -382 385
-386 -384
-386 -385
384 385 386
-387 -379
-387 -382
379 382 387
-388 -383
-388 -387
383 387 388
-389 -57
-389 58
57 -58 389
-390 57
-390 -58
-57 58 390
-391 -389
-391 -390
389 390 391
-392 57
-392 58
-57 -58 392
-393 388
-393 -391
-388 391 393
-394 -388
-394 391
388 -391 394
-395 -393
-395 -394
393 394 395
-396 -388
-396 -391
388 391 396
-397 -392
-397 -396
392 396 397
-398 -58
-398 59
58 -59 398
-399 58
-399 -59
-58 59 399
-400 -398
-400 -399
398 399 400
-401 58
-401 59
-58 -59 401
-402 397
-402 -400
-397 400 402
-403 -397
-403 400
397 -400 403
-404 -402
-404 -403
402 403 404
-405 -397
-405 -400
397 400 405
-406 -401
-406 -405
401 405 406
-407 -59
-407 60
59 -60 407
-408 59
-408 -60
-59 60 408
-409 -407
-409 -408
407 408 409
-410 59
-410 60
-59 -60 410
-411 406
-411 -409
-406 409 411
-412 -406
-412 409
406 -409 412
-413 -411
-413 -412
411 412 413
-414 -406
-414 -409
406 409 414
-415 -410
-415 -414
410 414 415
-416 -60
-416 61
60 -61 416
-417 60
-417 -61
-60 61 417
-418 -416
-418 -417
416 417 418
-419 60
-419 61
-60 -61 419
-420 415
-420 -418
-415 418 420
-421 -415
-421 418
415 -418 421
-422 -420
-422 -421
420 421 422
-423 -415
-423 -418
415 418 423
-424 -419
-424 -423
419 423 424
-425 -61
-425 62
61 -62 425
-426 61
-426 -62
-61 62 426
-427 -425
-427 -426
425 426 427
-428 61
-428 62
-61 -62 428
-429 424
-429 -427
-424 427 429
-430 -424
-430 427
424 -427 430
-431 -429
-431 -430
429 430 431
-432 -424
-432 -427
424 427 432
-433 -428
-433 -432
428 432 433
-434 -62
-434 63
62 -63 434
-435 62
-435 -63
-62 63 435
-436 -434
-436 -435
434 435 436
-437 62
-437 63
-62 -63 437
-438 433
-438 -436
-433 436 438
-439 -433
-439 436
433 -436 439
-440 -438
-440 -439
438 439 440
-441 -433
-441 -436
433 436 441
-442 -437
-442 -441
437 441 442
-443 25
-443 -107
-25 107 443
-444 -25
-444 27
25 -27 444
-445 -443
-445 -444
443 444 445
-446 25
-446 -116
-25 116 446
-447 -25
-447 28
25 -28 447
-448 -446
-448 -447
446 447 448
-449 25
-449 -125
-25 125 449
-450 -25
-450 29
25 -29 450
-451 -449
-451 -450
449 450 451
-452 25
-452 -134
-25 134 452
-453 -25
-453 30
25 -30 453
-454 -452
-454 -453
452 453 454
-455 25
-455 -143
-25 143 455
-456 -25
-456 31
25 -31 456
-457 -455
-457 -456
455 456 457
-458 25
-458 -152
-25 152 458
-459 -25
-459 32
25 -32 459
-460 -458
-460 -459
458 459 460
-461 25
-461 -161
-25 161 461
-462 -25
-462 33
25 -33 462
-463 -461
-463 -462
461 462 463
-464 25
-464 -170
-25 170 464
-465 -25
-465 34
25 -34 465
-466 -464
-466 -465
464 465 466
-467 25
-467 -179
-25 179 467
-468 -25
-468 35
25 -35 468
-469 -467
-469 -468
467 468 469
-470 25
-470 -188
-25 188 470
-471 -25
-471 36
25 -36 471
-472 -470
-472 -471
470 471 472
-473 25
-473 -197
-25 197 473
-474 -25
-474 37
25 -37 474
-475 -473
-475 -474
473 474 475
-476 25
-476 -206
-25 206 476
-477 -25
-477 38
25 -38 477
-478 -476
-478 -477
476 477 478
-479 25
-479 -215
-25 215 479
-480 -25
-480 39
25 -39 480
-481 -479
-481 -480
479 480 481
-482 25
-482 -224
-25 224 482
-483 -25
-483 40
25 -40 483
-484 -482
-484 -483
482 483 484
-485 25
-485 -233
-25 233 485
-486 -25
-486 41
25 -41 486
-487 -485
-487 -486
485 486 487
-488 25
-488 -242
-25 242 488
-489 -25
-489 42
25 -42 489
-490 -488
-490 -489
488 489 490
-491 25
-491 -251
-25 251 491
-492 -25
-492 43
25 -43 492
-493 -491
-493 -492
491 492 493
-494 25
-494 -260
-25 260 494
-495 -25
-495 44
25 -44 495
-496 -494
-496 -495
494 495 496
-497 25
-497 -269
-25 269 497
-498 -25
-498 45
25 -45 498
-499 -497
-499 -498
497 498 499
-500 25
-500 -278
-25 278 500
-501 -25
-501 46
25 -46 501
-502 -500
-502 -501
500 501 502
-503 25
-503 -287
-25 287 503
-504 -25
-504 47
25 -47 504
-505 -503
-505 -504
503 504 505
-506 25
-506 -296
-25 296 506
-507 -25
-507 48
25 -48 507
-508 -506
-508 -507
506 507 508
-509 25
-509 -305
-25 305 509
-510 -25
-510 49
25 -49 510
-511 -509
-511 -510
509 510 511
-512 25
-512 -314
-25 314 512
-513 -25
-513 50
25 -50 513
-514 -512
-514 -513
512 513 514
-515 25
-515 -323
-25 323 515
-516 -25
-516 51
25 -51 516
-517 -515
-517 -516
515 516 517
-518 25
-518 -332
-25 332 518
-519 -25
-519 52
25 -52 519
-520 -518
-520 -519
518 519 520
-521 25
-521 -341
-25 341 521
-522 -25
-522 53
25 -53 522
-523 -521
-523 -522
521 522 523
-524 25
-524 -350
-25 350 524
-525 -25
-525 54
25 -54 525
-526 -524
-526 -525
524 525 526
-527 25
-527 -359
-25 359 527
-528 -25
-528 55
25 -55 528
-529 -527
-529 -528
527 528 529
-530 25
-530 -368
-25 368 530
-531 -25
-531 56
25 -56 531
-532 -530
-532 -531
530 531 532
-533 25
-533 -377
-25 377 533
-534 -25
-534 57
25 -57 534
-535 -533
-535 -534
533 534 535
-536 25
-536 -386
-25 386 536
-537 -25
-537 58
25 -58 537
-538 -536
-538 -537
536 537 538
-539 25
-539 -395
-25 395 539
-540 -25
-540 59
25 -59 540
-541 -539
-541 -540
539 540 541
-542 25
-542 -404
-25 404 542
-543 -25
-543 60
25 -60 543
-544 -542
-544 -543
542 543 544
-545 25
-545 -413
-25 413 545
-546 -25
-546 61
25 -61 546
-547 -545
-547 -546
545 546 547
-548 25
-548 -422
-25 422 548
-549 -25
-549 62
25 -62 549
-550 -548
-550 -549
548 549 550
-551 25
-551 -431
-25 431 551
-552 -25
-552 63
25 -63 552
-553 -551
-553 -552
551 552 553
-554 25
-554 -440
-25 440 554
-555 1
-555 100
-1 -100 555
-556 -100
-556 101
100 -101 556
-557 -555
-557 -556
555 556 557
-558 2
-558 100
-2 -100 558
-559 -100
-559 -445
100 445 559
-560 -558
-560 -559
558 559 560
-561 3
-561 100
-3 -100 561
-562 -100
-562 -448
100 448 562
-563 -561
-563 -562
561 562 563
-564 4
-564 100
-4 -100 564
-565 -100
-565 -451
100 451 565
-566 -564
-566 -565
564 565 566
-567 5
-567 100
-5 -100 567
-568 -100
-568 -454
100 454 568
-569 -567
-569 -568
567 568 569
-570 6
-570 100
-6 -100 570
-571 -100
-571 -457
100 457 571
-572 -570
-572 -571
570 571 572
-573 7
-573 100
-7 -100 573
-574 -100
-574 -460
100 460 574
-575 -573
-575 -574
573 574 575
-576 8
-576 100
-8 -100 576
-577 -100
-577 -463
100 463 577
-578 -576
-578 -577
576 577 578
-579 9
-579 100
-9 -100 579
-580 -100
-580 -466
100 466 580
-581 -579
-581 -580
579 580 581
-582 10
-582 100
-10 -100 582
-583 -100
-583 -469
100 469 583
-584 -582
-584 -583
582 583 584
-585 11
-585 100
-11 -100 585
-586 -100
-586 -472
100 472 586
-587 -585
-587 -586
585 586 587
-588 12
-588 100
-12 -100 588
-589 -100
-589 -475
100 475 589
-590 -588
-590 -589
588 589 590
-591 13
-591 100
-13 -100 591
-592 -100
-592 -478
100 478 592
-593 -591
-593 -592
591 592 593
-594 14
-594 100
-14 -100 594
-595 -100
-595 -481
100 481 595
-596 -594
-596 -595
594 595 596
-597 15
-597 100
-15 -100 597
-598 -100
-598 -484
100 484 598
-599 -597
-599 -598
597 598 599
-600 16
-600 100
-16 -100 600
-601 -100
-601 -487
100 487 601
-602 -600
-602 -601
600 601 602
-603 17
-603 100
-17 -100 603
-604 -100
-604 -490
100 490 604
-605 -603
-605 -604
603 604 605
-606 18
-606 100
-18 -100 606
-607 -100
-607 -493
100 493 607
-608 -606
-608 -607
606 607 608
-609 19
-609 100
-19 -100 609
-610 -100
-610 -496
100 496 610
-611 -609
-611 -610
609 610 611
-612 20
-612 100
-20 -100 612
-613 -100
-613 -499
100 499 613
-614 -612
-614 -613
612 613 614
-615 21
-615 100
-21 -100 615
-616 -100
-616 -502
100 502 616
-617 -615
-617 -616
615 616 617
-618 22
-618 100
-22 -100 618
-619 -100
-619 -505
100 505 619
-620 -618
-620 -619
618 619 620
-621 23
-621 100
-23 -100 621
-622 -100
-622 -508
100 508 622
-623 -621
-623 -622
621 622 623
-624 24
-624 100
-24 -100 624
-625 -100
-625 -511
100 511 625
-626 -624
-626 -625
624 625 626
-627 -100
-627 -514
100 514 627
-628 -100
-628 -517
100 517 628
-629 -100
-629 -520
100 520 629
-630 -100
-630 -523
100 523 630
-631 -100
-631 -526
100 526 631
-632 -100
-632 -529
100 529 632
-633 -100
-633 -532
100 532 633
-634 -100
-634 -535
100 535 634
-635 -100
-635 -538
100 538 635
-636 -100
-636 -541
100 541 636
-637 -100
-637 -544
100 544 637
-638 -100
-638 -547
100 547 638
-639 -100
-639 -550
100 550 639
-640 -100
-640 -553
100 553 640
-641 -100
-641 554
100 -554 641
-642 -63
-642 442
63 -442 642
-643 25
-643 -642
-25 642 643
643
